0000000000000000
0000000000000000
0000011111111100
0000011111111100
0000000000111010
0000000000011000
0000000000011000
0000000000011000
0000000000011000
0000000000011000
0000000000011000
0000000000011000
0000000000100000
0000000000000000
0000000000000000
0000000000000000
